; PUSH cw_1 DUP1 POP POP => 
(set-option :produce-proofs true)
; 
(set-info :status unknown)
(declare-fun storage_t ((_ BitVec 256) Int (_ BitVec 256)) (_ BitVec 256))
(declare-fun w_1 () (_ BitVec 256))
(declare-fun storage_s ((_ BitVec 256) Int (_ BitVec 256)) (_ BitVec 256))
(declare-fun exc_halt_t (Int) Bool)
(declare-fun exc_halt_s (Int) Bool)
(declare-fun sc_t (Int) (_ BitVec 6))
(declare-fun stack_t ((_ BitVec 256) Int (_ BitVec 6)) (_ BitVec 256))
(declare-fun stack_s ((_ BitVec 256) Int (_ BitVec 6)) (_ BitVec 256))
(declare-fun sc_s (Int) (_ BitVec 6))
(declare-fun used_gas_t ((_ BitVec 256) Int) Int)
(declare-fun used_gas_s ((_ BitVec 256) Int) Int)
(assert
 (let (($x942 (forall ((w (_ BitVec 256)) )(let ((?x10412 (storage_t w_1 0 w)))
 (let ((?x502 (storage_s w_1 4 w)))
 (= ?x502 ?x10412))))
 ))
 (let (($x56 (exc_halt_t 0)))
 (let (($x7172 (exc_halt_s 4)))
 (let (($x10625 (= $x7172 $x56)))
 (let (($x8439 (forall ((n (_ BitVec 6)) )(let ((?x63 (sc_t 0)))
 (let (($x11230 (bvsle ?x63 n)))
 (let ((?x8967 (stack_t w_1 0 n)))
 (let ((?x11440 (stack_s w_1 4 n)))
 (let (($x5059 (= ?x11440 ?x8967)))
 (or $x5059 $x11230)))))))
 ))
 (let ((?x63 (sc_t 0)))
 (let ((?x4305 (sc_s 4)))
 (let (($x8329 (= ?x4305 ?x63)))
 (let ((?x4027 (used_gas_t w_1 0)))
 (let ((?x9463 (used_gas_s w_1 0)))
 (let (($x1537 (= ?x9463 ?x4027)))
 (let (($x4259 (forall ((w (_ BitVec 256)) )(let ((?x10412 (storage_t w_1 0 w)))
 (let ((?x3389 (storage_s w_1 0 w)))
 (= ?x3389 ?x10412))))
 ))
 (let (($x57 (exc_halt_s 0)))
 (let (($x58 (= $x57 $x56)))
 (let (($x8935 (forall ((n (_ BitVec 6)) )(let ((?x63 (sc_t 0)))
 (let (($x11230 (bvsle ?x63 n)))
 (let ((?x8967 (stack_t w_1 0 n)))
 (let ((?x6753 (stack_s w_1 0 n)))
 (let (($x10445 (= ?x6753 ?x8967)))
 (or $x10445 $x11230)))))))
 ))
 (let ((?x72 (sc_s 0)))
 (let (($x73 (= ?x72 ?x63)))
 (let (($x4066 (= $x7172 (or (exc_halt_s 3) (not (bvsle (_ bv0 6) (bvadd (_ bv63 6) (sc_s 3))))))))
 (let (($x3750 (forall ((w (_ BitVec 256)) )(let ((?x2508 (storage_s w_1 3 w)))
 (let ((?x502 (storage_s w_1 4 w)))
 (= ?x502 ?x2508))))
 ))
 (let (($x3326 (forall ((n (_ BitVec 6)) )(or (= (stack_s w_1 4 n) (stack_s w_1 3 n)) (bvsle (bvadd (_ bv63 6) (sc_s 3)) n)))
 ))
 (let ((?x275 (sc_s 3)))
 (let ((?x6799 (bvadd (_ bv63 6) ?x275)))
 (let (($x10583 (= ?x4305 ?x6799)))
 (let (($x292 (exc_halt_s 3)))
 (let (($x2176 (= $x292 (or (exc_halt_s 2) (not (bvsle (_ bv0 6) (bvadd (_ bv63 6) (sc_s 2))))))))
 (let (($x6120 (forall ((w (_ BitVec 256)) )(let ((?x10360 (storage_s w_1 2 w)))
 (let ((?x2508 (storage_s w_1 3 w)))
 (= ?x2508 ?x10360))))
 ))
 (let (($x5883 (forall ((n (_ BitVec 6)) )(let ((?x218 (sc_s 2)))
 (let ((?x7644 (bvadd (_ bv63 6) ?x218)))
 (let (($x9529 (bvsle ?x7644 n)))
 (or $x9529 (= (stack_s w_1 3 n) (stack_s w_1 2 n)))))))
 ))
 (let ((?x218 (sc_s 2)))
 (let ((?x7644 (bvadd (_ bv63 6) ?x218)))
 (let (($x2683 (= ?x275 ?x7644)))
 (let (($x3991 (not (bvsle (_ bv0 6) (bvadd (_ bv63 6) (sc_s 1))))))
 (let (($x1394 (not (= ((_ extract 6 6) (bvadd (_ bv1 7) (concat (_ bv0 1) (sc_s 1)))) (_ bv0 1)))))
 (let (($x189 (exc_halt_s 1)))
 (let (($x247 (exc_halt_s 2)))
 (let (($x10366 (= $x247 (or $x189 $x1394 $x3991))))
 (let (($x9638 (forall ((w (_ BitVec 256)) )(let ((?x9301 (storage_s w_1 1 w)))
 (let ((?x10360 (storage_s w_1 2 w)))
 (= ?x10360 ?x9301))))
 ))
 (let (($x3120 (forall ((n (_ BitVec 6)) )(let ((?x154 (sc_s 1)))
 (let ((?x3077 (bvadd (_ bv63 6) ?x154)))
 (let (($x8034 (bvsle ?x3077 n)))
 (or (= (stack_s w_1 2 n) (stack_s w_1 1 n)) $x8034)))))
 ))
 (let (($x4361 (= ?x218 (bvadd (_ bv1 6) (sc_s 1)))))
 (let ((?x154 (sc_s 1)))
 (let ((?x3077 (bvadd (_ bv63 6) ?x154)))
 (let ((?x1365 (stack_s w_1 1 ?x3077)))
 (let (($x7127 (= $x189 (or $x57 (not (= ((_ extract 6 6) (bvadd (_ bv1 7) (concat (_ bv0 1) ?x72))) (_ bv0 1)))))))
 (let (($x4716 (forall ((w (_ BitVec 256)) )(let ((?x3389 (storage_s w_1 0 w)))
 (let ((?x9301 (storage_s w_1 1 w)))
 (= ?x9301 ?x3389))))
 ))
 (let (($x993 (forall ((n (_ BitVec 6)) )(let ((?x72 (sc_s 0)))
 (let (($x5044 (bvsle ?x72 n)))
 (or (= (stack_s w_1 1 n) (stack_s w_1 0 n)) $x5044))))
 ))
 (let (($x2340 (= ?x154 (bvadd (_ bv1 6) ?x72))))
 (let (($x8510 (forall ((w (_ BitVec 256)) )(let ((?x3389 (storage_s w_1 0 w)))
 (= ?x3389 (_ bv0 256))))
 ))
 (let (($x770 (= ?x9463 0)))
 (let (($x5230 (not $x57)))
 (let (($x7032 (= ?x72 (_ bv0 6))))
 (and $x7032 $x5230 $x770 $x8510 (= (stack_s w_1 1 ?x72) w_1) (= (used_gas_s w_1 1) (+ 3 ?x9463)) $x2340 $x993 $x4716 $x7127 (= (stack_s w_1 2 ?x7644) ?x1365) (= (stack_s w_1 2 ?x3077) ?x1365) (= (used_gas_s w_1 2) (+ 3 (used_gas_s w_1 1))) $x4361 $x3120 $x9638 $x10366 (= (used_gas_s w_1 3) (+ 2 (used_gas_s w_1 2))) $x2683 $x5883 $x6120 $x2176 (= (used_gas_s w_1 4) (+ 2 (used_gas_s w_1 3))) $x10583 $x3326 $x3750 $x4066 $x73 $x8935 $x58 $x4259 $x1537 (not (and $x8329 $x8439 $x10625 $x942)))))))))))))))))))))))))))))))))))))))))))))))))))))
(check-sat)
(get-proof)
